28 50
3 29
96 7
91 29
88 13
44 33
34 81
2 150
49 38
50 32
13 90
28 73
25 99
31 166
8 88
28 154
67 17
57 51
11 107
33 61
1 118
25 157
99 19
5 83
40 16
89 12
48 92
11 8
30 109
42 69
31 65
43 76
7 145
4 192
90 18
65 33
73 10
50 80
3 198
52 27
28 164
65 46
38 26
4 187
20 131
54 27
7 19
46 73
24 69
8 125
